set VV := 0 1 2 3 4 5 6 7 8 9 10 11 12 13 14 15 16 17 18 19 20 21 22 23 24 25 26 27 28 29 30 31 32 33 34 35 36 ;
set VS := 0 1 2 3 4 5 6 7 8 9 10 11 12 13 14 15 16 17 18 19 20 21 22 23 24 25 26 27 28 29 30 31 32 33 34 35 36 37 38 39 40 41 42 43 44 45 46 47 48 49 50 51 52 53 54 55 56 57 58 59 60 61 62 63 64 65 66 67 68 69 70 71 72 73 74 75 76 77 ;
param cv := 
0 19
1 21
2 12
3 12
4 17
5 22
6 10
7 18
8 21
9 13
10 17
11 20
12 21
13 15
14 22
15 15
16 20
17 21
18 20
19 21
20 19
21 21
22 21
23 11
24 11
25 17
26 11
27 21
28 20
29 10
30 24
31 22
32 10
33 23
34 14
35 24
36 25
;
param cs := 
0 31
1 33
2 22
3 33
4 26
5 33
6 38
7 26
8 26
9 38
10 24
11 25
12 28
13 30
14 20
15 21
16 20
17 23
18 34
19 21
20 28
21 29
22 31
23 23
24 24
25 36
26 34
27 25
28 32
29 25
30 32
31 32
32 28
33 24
34 31
35 31
36 33
37 27
38 38
39 26
40 38
41 32
42 29
43 39
44 39
45 40
46 32
47 40
48 21
49 26
50 29
51 31
52 28
53 22
54 34
55 30
56 37
57 31
58 33
59 27
60 30
61 26
62 36
63 27
64 40
65 22
66 36
67 21
68 34
69 32
70 39
71 24
72 22
73 26
74 32
75 20
76 31
77 31
;
param bv:	 0 1 2 3 4 5 6 7 8 9 10 11 12 13 14 15 16 17 18 19 20 21 22 23 24 25 26 27 28 29 30 31 32 33 34 35 36 := 
		0 0 16 0 0 0 0 0 0 0 0 16 0 0 0 0 11 0 0 0 24 0 0 0 0 0 0 0 0 0 0 0 15 0 0 0 0 0 
		1 0 0 11 0 0 0 0 0 0 0 0 0 0 0 0 0 0 0 0 0 0 0 0 0 0 0 0 0 0 0 0 0 17 0 0 0 18 
		2 0 0 0 12 0 0 0 0 0 19 0 0 0 0 0 0 0 11 0 0 0 21 0 0 16 20 0 0 0 0 0 0 0 12 0 0 0 
		3 0 0 0 0 0 0 0 0 0 0 0 0 0 0 0 19 0 0 0 0 0 21 0 0 24 0 23 0 0 0 0 0 0 0 0 0 0 
		4 0 0 0 0 0 0 0 0 0 0 0 10 0 20 0 0 0 0 0 0 0 0 22 0 0 0 0 0 0 0 0 0 0 0 0 0 25 
		5 0 0 0 0 0 0 0 0 0 0 0 0 0 0 0 0 0 25 0 0 23 0 0 0 0 20 0 0 0 0 24 0 15 12 18 0 0 
		6 0 0 0 0 0 0 0 0 0 13 0 0 0 0 0 0 0 0 0 0 0 0 0 0 0 0 0 0 0 0 0 0 0 0 0 16 0 
		7 0 0 0 0 0 0 0 0 0 0 0 0 0 0 0 0 0 0 0 0 0 0 0 0 22 0 0 0 0 0 0 0 0 0 0 0 14 
		8 0 0 0 0 0 0 0 0 0 0 0 0 0 0 0 0 0 20 24 0 0 0 0 0 0 0 0 0 13 0 0 0 0 22 18 0 0 
		9 0 0 0 0 0 0 0 0 0 0 0 0 0 0 0 0 0 0 0 0 0 0 0 0 21 0 0 0 0 0 0 0 0 25 0 0 0 
		10 0 0 0 0 0 0 0 0 0 0 0 0 0 0 0 0 0 0 0 0 0 0 0 0 0 0 0 0 0 0 0 0 0 0 0 0 0 
		11 0 0 0 0 0 0 0 0 0 0 0 0 0 0 0 0 0 0 0 0 0 0 0 0 0 0 0 0 0 0 0 0 0 0 0 0 0 
		12 0 0 0 0 0 0 0 0 0 0 0 0 0 0 0 0 0 0 0 21 0 0 0 0 0 0 0 0 0 0 0 0 0 0 0 11 0 
		13 0 0 0 0 0 0 0 0 0 0 0 0 0 0 0 0 0 0 16 0 0 0 0 0 0 0 0 0 0 0 0 0 0 0 0 0 0 
		14 0 0 0 0 0 0 0 0 0 0 0 0 0 0 0 0 0 0 0 0 0 0 0 0 0 0 0 0 0 22 0 0 0 11 0 0 0 
		15 0 0 0 0 0 0 0 0 0 0 0 0 0 0 0 0 0 0 0 0 0 0 0 0 0 0 0 0 0 0 0 0 0 16 0 0 0 
		16 0 0 0 0 0 0 0 0 0 0 0 0 0 0 0 0 0 0 0 0 0 0 0 0 0 0 0 0 24 0 22 0 11 0 0 0 0 
		17 0 0 0 0 0 0 0 0 0 0 0 0 0 0 0 0 0 0 0 0 0 0 0 0 0 0 0 0 25 0 0 0 0 0 0 0 0 
		18 0 0 0 0 0 0 0 0 0 0 0 0 0 0 0 0 0 0 0 0 0 0 0 0 0 0 0 19 0 0 0 0 0 0 17 0 0 
		19 0 0 0 0 0 0 0 0 0 0 0 0 0 0 0 0 0 0 0 0 0 0 0 0 0 0 0 0 0 0 0 0 0 0 0 0 0 
		20 0 0 0 0 0 0 0 0 0 0 0 0 0 0 0 0 0 0 0 0 0 0 25 0 0 0 0 14 0 0 0 0 0 0 0 0 0 
		21 0 0 0 0 0 0 0 0 0 0 0 0 0 0 0 0 0 0 0 0 0 0 0 0 0 0 0 0 0 25 0 0 0 0 0 0 0 
		22 0 0 0 0 0 0 0 0 0 0 0 0 0 0 0 0 0 0 0 0 0 0 0 0 0 0 0 0 0 20 23 0 0 0 0 0 0 
		23 0 0 0 0 0 0 0 0 0 0 0 0 0 0 0 0 0 0 0 0 0 0 0 0 0 20 0 0 0 0 0 0 0 0 0 0 0 
		24 0 0 0 0 0 0 0 0 0 0 0 0 0 0 0 0 0 0 0 0 0 0 0 0 0 21 0 23 18 0 0 0 0 0 0 0 0 
		25 0 0 0 0 0 0 0 0 0 0 0 0 0 0 0 0 0 0 0 0 0 0 0 0 0 0 0 0 0 0 0 0 0 10 20 0 0 
		26 0 0 0 0 0 0 0 0 0 0 0 0 0 0 0 0 0 0 0 0 0 0 0 0 0 0 0 0 0 0 10 24 0 0 0 0 0 
		27 0 0 0 0 0 0 0 0 0 0 0 0 0 0 0 0 0 0 0 0 0 0 0 0 0 0 0 0 0 0 0 0 0 0 0 22 16 
		28 0 0 0 0 0 0 0 0 0 0 0 0 0 0 0 0 0 0 0 0 0 0 0 0 0 0 0 0 0 0 0 0 0 0 0 15 0 
		29 0 0 0 0 0 0 0 0 0 0 0 0 0 0 0 0 0 0 0 0 0 0 0 0 0 0 0 0 0 0 0 0 0 22 0 0 0 
		30 0 0 0 0 0 0 0 0 0 0 0 0 0 0 0 0 0 0 0 0 0 0 0 0 0 0 0 0 0 0 0 0 23 0 0 0 0 
		31 0 0 0 0 0 0 0 0 0 0 0 0 0 0 0 0 0 0 0 0 0 0 0 0 0 0 0 0 0 0 0 0 0 0 0 0 0 
		32 0 0 0 0 0 0 0 0 0 0 0 0 0 0 0 0 0 0 0 0 0 0 0 0 0 0 0 0 0 0 0 0 0 0 10 0 0 
		33 0 0 0 0 0 0 0 0 0 0 0 0 0 0 0 0 0 0 0 0 0 0 0 0 0 0 0 0 0 0 0 0 0 0 0 0 0 
		34 0 0 0 0 0 0 0 0 0 0 0 0 0 0 0 0 0 0 0 0 0 0 0 0 0 0 0 0 0 0 0 0 0 0 0 0 0 
		35 0 0 0 0 0 0 0 0 0 0 0 0 0 0 0 0 0 0 0 0 0 0 0 0 0 0 0 0 0 0 0 0 0 0 0 0 20 
		36 0 0 0 0 0 0 0 0 0 0 0 0 0 0 0 0 0 0 0 0 0 0 0 0 0 0 0 0 0 0 0 0 0 0 0 0 0 
;
param bs:	 0 1 2 3 4 5 6 7 8 9 10 11 12 13 14 15 16 17 18 19 20 21 22 23 24 25 26 27 28 29 30 31 32 33 34 35 36 37 38 39 40 41 42 43 44 45 46 47 48 49 50 51 52 53 54 55 56 57 58 59 60 61 62 63 64 65 66 67 68 69 70 71 72 73 74 75 76 77 := 
		0 0 0 21 0 0 0 0 0 25 0 0 0 21 0 0 0 0 0 0 39 0 0 28 0 0 0 0 0 0 0 0 0 0 0 40 0 0 0 0 0 0 0 0 0 31 0 29 0 0 0 0 0 0 0 0 0 0 36 0 0 0 0 0 0 0 0 0 32 0 0 0 0 32 0 0 0 0 0 
		1 0 0 0 0 0 0 0 0 0 0 0 0 0 0 0 0 0 0 0 0 0 0 0 0 0 0 0 0 0 0 0 0 0 0 0 0 0 0 0 0 0 0 0 0 30 0 0 0 0 0 0 0 0 0 0 0 38 0 0 0 0 0 0 0 0 33 0 0 0 20 0 0 0 0 36 0 0 0 
		2 21 0 0 0 0 0 0 0 34 0 0 0 0 0 0 0 0 0 37 0 0 0 0 0 0 0 0 0 30 0 0 0 0 0 38 0 0 0 26 35 0 0 0 0 0 0 0 0 0 0 0 0 0 0 0 0 0 0 0 0 0 0 0 0 0 0 0 0 0 0 0 0 0 0 31 0 0 22 
		3 0 0 0 0 0 38 0 0 24 0 0 0 22 0 0 0 0 0 0 0 0 0 0 0 0 35 23 0 0 0 0 34 0 0 0 0 28 0 27 0 0 0 0 0 27 36 0 0 0 0 36 0 0 38 0 0 0 0 0 0 0 0 0 0 0 0 0 0 39 30 38 0 0 0 20 0 0 0 
		4 0 0 0 0 0 0 0 0 0 0 0 0 0 0 0 0 0 0 0 0 0 0 0 0 0 0 0 0 0 0 0 0 28 0 0 0 0 36 0 0 0 0 0 0 0 0 0 0 0 0 0 0 0 0 0 0 0 0 0 24 0 0 0 0 0 0 0 0 0 0 0 28 0 0 0 0 0 0 
		5 0 0 0 38 0 0 0 0 0 0 0 0 0 0 0 0 0 0 0 0 0 0 0 0 0 0 0 0 0 0 0 0 0 0 0 0 0 0 0 0 0 0 0 0 0 0 29 0 0 0 0 0 0 0 0 0 0 0 33 0 0 0 26 36 0 0 0 0 0 0 0 0 0 0 0 0 0 0 
		6 0 0 0 0 0 0 0 0 0 0 24 0 0 0 0 0 0 0 0 0 0 40 0 0 0 0 0 0 0 0 0 0 21 0 0 0 0 0 29 35 0 0 0 0 0 0 0 0 0 0 33 0 0 0 0 0 0 0 0 0 0 0 0 38 0 0 0 0 0 0 0 0 36 0 36 0 0 0 
		7 0 0 0 0 0 0 0 0 0 0 0 0 0 0 0 0 0 0 0 0 0 0 0 0 0 0 0 0 0 0 0 0 35 0 25 0 29 37 0 0 0 0 0 25 0 0 0 0 0 35 0 0 24 0 0 0 0 0 0 23 0 32 0 0 0 0 0 0 0 0 0 0 0 0 0 0 0 26 
		8 25 0 34 24 0 0 0 0 0 0 0 0 0 36 35 0 0 0 0 0 0 0 0 0 0 0 0 0 40 0 0 0 0 0 0 0 0 0 0 0 0 0 0 0 0 39 0 0 0 0 33 0 0 0 0 0 0 0 0 0 0 0 0 0 0 32 0 0 0 33 0 0 25 0 0 0 25 0 
		9 0 0 0 0 0 0 0 0 0 0 0 0 27 0 30 0 0 0 0 0 0 23 0 0 0 0 0 0 0 0 0 0 0 0 0 0 0 0 0 29 0 0 0 0 0 0 0 38 36 0 0 0 0 0 0 26 0 0 0 0 0 0 0 28 0 0 0 0 0 0 0 0 0 0 0 0 0 0 
		10 0 0 0 0 0 0 24 0 0 0 0 28 32 0 0 0 0 0 0 0 0 0 0 0 0 0 0 0 34 0 0 0 0 0 0 0 0 35 0 25 0 0 0 0 0 28 0 0 0 0 0 0 0 27 0 0 0 0 0 0 0 0 34 0 0 0 0 0 0 0 0 37 0 0 0 0 0 0 
		11 0 0 0 0 0 0 0 0 0 0 28 0 0 0 0 0 0 0 0 0 0 0 0 0 0 0 0 0 25 0 0 0 0 0 0 38 0 0 0 0 0 0 0 31 0 0 0 0 0 0 0 0 0 23 0 0 0 0 0 0 0 0 0 0 0 0 0 0 0 0 0 0 0 0 0 0 0 0 
		12 21 0 0 22 0 0 0 0 0 27 32 0 0 0 0 0 0 0 0 0 0 0 0 0 0 0 0 0 0 0 0 0 30 0 0 0 0 22 0 0 0 24 0 0 0 0 0 0 0 0 0 0 0 0 40 38 0 0 0 0 0 0 0 0 0 0 0 0 23 0 0 0 0 0 0 0 0 40 
		13 0 0 0 0 0 0 0 0 36 0 0 0 0 0 0 0 34 0 39 0 0 0 0 0 22 0 34 0 0 0 0 0 0 0 0 0 0 0 0 0 0 0 0 21 0 0 0 0 0 0 0 0 0 0 0 0 0 35 0 0 0 40 0 0 0 0 0 31 0 0 0 0 35 0 0 0 0 0 
		14 0 0 0 0 0 0 0 0 35 30 0 0 0 0 0 0 0 0 0 0 0 0 0 31 40 33 0 0 29 0 0 0 0 0 0 30 0 0 0 0 0 0 0 0 0 0 0 0 0 0 0 0 0 0 29 0 0 40 0 0 0 0 0 0 0 0 0 0 25 0 0 0 0 0 0 0 32 0 
		15 0 0 0 0 0 0 0 0 0 0 0 0 0 0 0 0 0 0 0 0 0 0 0 0 0 0 0 0 0 0 0 0 0 0 0 0 0 0 0 0 0 0 0 0 0 0 0 0 0 0 0 0 0 24 0 0 0 0 36 0 0 0 0 0 39 0 0 0 33 0 0 0 0 39 0 0 35 0 
		16 0 0 0 0 0 0 0 0 0 0 0 0 0 34 0 0 0 0 0 0 32 0 32 0 0 33 0 0 0 0 0 0 40 28 0 0 0 0 0 0 0 0 0 0 0 36 0 0 0 0 0 0 0 0 0 0 0 0 0 0 0 30 0 0 0 24 0 0 0 0 0 0 0 0 0 0 30 0 
		17 0 0 0 0 0 0 0 0 0 0 0 0 0 0 0 0 0 0 0 0 0 0 0 0 0 0 0 0 0 0 37 0 0 0 0 0 0 0 0 0 0 0 0 0 0 0 0 0 0 0 0 0 0 0 0 0 0 0 0 0 0 0 0 0 0 0 0 0 31 0 0 0 0 0 22 0 27 0 
		18 0 0 37 0 0 0 0 0 0 0 0 0 0 39 0 0 0 0 0 0 0 0 0 0 0 31 25 0 38 0 0 0 0 0 0 0 0 30 37 40 0 0 0 0 0 33 0 0 0 0 22 0 0 0 0 0 0 0 0 0 0 39 0 0 0 0 0 0 30 0 0 0 0 32 0 0 0 0 
		19 39 0 0 0 0 0 0 0 0 0 0 0 0 0 0 0 0 0 0 0 0 0 0 0 0 0 33 0 0 0 0 0 0 0 36 0 0 0 0 0 0 0 0 24 0 0 0 0 0 0 0 0 0 0 0 0 0 20 0 0 0 0 32 0 0 20 0 0 0 26 0 0 0 0 0 0 0 0 
		20 0 0 0 0 0 0 0 0 0 0 0 0 0 0 0 0 32 0 0 0 0 0 0 0 0 0 0 0 0 0 0 25 23 0 0 0 0 40 0 0 0 0 0 0 0 0 0 0 0 0 0 0 0 0 0 0 0 0 40 0 22 39 0 0 0 0 0 0 0 0 0 0 0 0 0 0 0 39 
		21 0 0 0 0 0 0 40 0 0 23 0 0 0 0 0 0 0 0 0 0 0 0 0 20 0 0 0 0 0 0 0 0 0 0 0 0 0 0 0 0 0 0 0 0 0 0 0 21 0 0 0 0 0 0 0 0 0 0 0 0 0 0 31 36 0 0 0 0 0 0 0 0 0 0 0 0 0 0 
		22 28 0 0 0 0 0 0 0 0 0 0 0 0 0 0 0 32 0 0 0 0 0 0 0 21 0 0 0 0 0 0 0 0 0 22 38 25 0 0 0 0 0 0 32 0 33 0 0 0 0 0 0 0 0 0 0 0 0 0 0 0 0 0 0 0 31 0 0 0 0 0 0 37 0 36 0 0 0 
		23 0 0 0 0 0 0 0 0 0 0 0 0 0 0 31 0 0 0 0 0 0 20 0 0 0 0 0 0 22 0 0 0 0 0 0 0 0 0 0 0 0 0 0 0 0 29 0 0 0 0 0 0 0 0 0 0 0 0 0 0 0 0 0 0 0 0 0 0 0 0 0 0 0 0 20 0 0 30 
		24 0 0 0 0 0 0 0 0 0 0 0 0 0 22 40 0 0 0 0 0 0 0 21 0 0 0 0 0 0 0 0 20 0 0 0 0 0 0 0 0 0 0 27 0 0 0 0 0 0 0 0 0 28 0 0 0 33 0 0 0 0 0 0 0 0 0 21 0 0 0 0 0 0 0 0 0 0 0 
		25 0 0 0 35 0 0 0 0 0 0 0 0 0 0 33 0 33 0 31 0 0 0 0 0 0 0 24 0 0 0 0 0 0 0 0 0 0 0 0 0 0 0 0 34 29 40 0 0 0 0 0 0 0 0 0 0 0 0 0 0 0 0 0 0 35 0 0 0 0 39 0 0 0 0 0 0 0 0 
		26 0 0 0 23 0 0 0 0 0 0 0 0 0 34 0 0 0 0 25 33 0 0 0 0 0 24 0 0 24 0 0 0 0 0 0 0 0 0 0 0 0 0 0 0 0 32 0 0 0 0 0 0 0 0 0 0 0 0 0 0 0 0 0 20 0 0 0 0 0 27 0 0 0 27 40 0 0 0 
		27 0 0 0 0 0 0 0 0 0 0 0 0 0 0 0 0 0 0 0 0 0 0 0 0 0 0 0 0 0 0 0 0 0 0 0 0 0 0 0 0 20 0 0 0 0 0 0 0 0 0 0 0 0 24 0 0 0 0 34 0 0 0 0 0 0 0 0 0 0 0 0 0 0 0 0 31 0 0 
		28 0 0 30 0 0 0 0 0 40 0 34 25 0 0 29 0 0 0 38 0 0 0 0 22 0 0 24 0 0 0 0 23 0 0 0 0 0 0 0 0 0 0 0 21 0 0 0 0 0 0 0 0 0 0 0 22 0 0 0 0 0 0 0 0 0 0 0 0 0 0 33 0 0 0 0 0 0 0 
		29 0 0 0 0 0 0 0 0 0 0 0 0 0 0 0 0 0 0 0 0 0 0 0 0 0 0 0 0 0 0 23 33 0 0 0 0 0 0 0 0 0 0 0 0 0 0 0 0 0 0 0 0 0 0 0 36 0 0 0 0 0 0 0 36 0 0 0 0 0 0 0 0 0 0 0 0 0 0 
		30 0 0 0 0 0 0 0 0 0 0 0 0 0 0 0 0 0 37 0 0 0 0 0 0 0 0 0 0 0 23 0 0 26 0 0 0 0 0 0 20 0 0 0 0 0 0 0 0 0 0 0 0 0 0 0 0 0 0 0 0 0 0 0 0 0 0 0 0 0 0 0 0 0 0 0 0 0 0 
		31 0 0 0 34 0 0 0 0 0 0 0 0 0 0 0 0 0 0 0 0 25 0 0 0 20 0 0 0 23 33 0 0 0 0 0 36 0 0 0 0 0 0 0 0 0 0 0 0 0 0 0 0 0 0 0 0 35 0 0 0 23 0 0 0 0 0 0 0 0 0 0 0 0 23 0 0 0 37 
		32 0 0 0 0 28 0 21 35 0 0 0 0 30 0 0 0 40 0 0 0 23 0 0 0 0 0 0 0 0 0 26 0 0 0 0 0 0 0 0 0 27 0 0 0 0 0 0 0 0 0 0 0 0 0 0 0 0 0 0 28 0 35 0 0 0 0 0 0 0 0 0 0 0 40 0 0 0 0 
		33 0 0 0 0 0 0 0 0 0 0 0 0 0 0 0 0 28 0 0 0 0 0 0 0 0 0 0 0 0 0 0 0 0 0 0 0 0 0 0 0 0 0 0 0 0 0 0 0 0 0 0 0 0 0 0 0 0 0 0 0 0 0 0 0 0 0 27 0 0 28 0 0 0 0 0 25 0 0 
		34 40 0 38 0 0 0 0 25 0 0 0 0 0 0 0 0 0 0 0 36 0 0 22 0 0 0 0 0 0 0 0 0 0 0 0 0 0 0 36 0 0 0 0 40 0 0 0 0 0 0 0 0 0 0 0 0 0 0 24 23 0 22 0 0 0 0 0 31 0 36 0 0 30 26 0 0 0 0 
		35 0 0 0 0 0 0 0 0 0 0 0 38 0 0 30 0 0 0 0 0 0 0 38 0 0 0 0 0 0 0 0 36 0 0 0 0 0 0 0 0 0 0 0 0 0 0 0 0 0 0 0 0 0 0 0 37 0 0 0 0 0 0 0 0 0 0 0 31 0 40 0 0 0 0 26 0 0 0 
		36 0 0 0 28 0 0 0 29 0 0 0 0 0 0 0 0 0 0 0 0 0 0 25 0 0 0 0 0 0 0 0 0 0 0 0 0 0 0 0 0 0 28 0 0 0 0 0 0 0 0 28 0 0 0 0 0 0 0 0 0 0 0 0 0 0 0 38 0 0 36 0 0 0 0 0 34 0 0 
		37 0 0 0 0 36 0 0 37 0 0 35 0 22 0 0 0 0 0 30 0 40 0 0 0 0 0 0 0 0 0 0 0 0 0 0 0 0 0 0 0 24 0 0 0 0 0 0 0 0 36 0 0 0 22 0 0 0 0 0 0 20 0 0 0 0 0 0 0 0 0 0 0 0 38 0 0 0 0 
		38 0 0 26 27 0 0 29 0 0 0 0 0 0 0 0 0 0 0 37 0 0 0 0 0 0 0 0 0 0 0 0 0 0 0 36 0 0 0 0 0 0 27 0 0 34 0 0 0 24 0 0 0 0 0 0 0 0 0 0 0 0 0 0 25 31 0 0 0 32 0 0 0 0 0 0 0 32 0 
		39 0 0 35 0 0 0 35 0 0 29 25 0 0 0 0 0 0 0 40 0 0 0 0 0 0 0 0 0 0 0 20 0 0 0 0 0 0 0 0 0 0 0 0 0 0 0 0 25 0 0 0 0 0 0 0 0 0 0 0 0 39 0 0 0 0 0 0 0 0 0 0 31 0 31 0 0 0 0 
		40 0 0 0 0 0 0 0 0 0 0 0 0 0 0 0 0 0 0 0 0 0 0 0 0 0 0 0 20 0 0 0 0 27 0 0 0 0 24 0 0 0 0 0 0 0 0 0 0 0 0 0 0 0 0 0 0 0 0 0 0 0 0 0 0 0 0 0 38 0 0 26 0 0 0 0 0 0 0 
		41 0 0 0 0 0 0 0 0 0 0 0 0 24 0 0 0 0 0 0 0 0 0 0 0 0 0 0 0 0 0 0 0 0 0 0 0 28 0 27 0 0 0 0 0 0 0 35 0 22 0 26 31 0 0 27 0 0 0 25 0 23 0 0 30 30 0 26 0 33 0 0 0 0 21 0 0 0 0 
		42 0 0 0 0 0 0 0 0 0 0 0 0 0 0 0 0 0 0 0 0 0 0 0 0 27 0 0 0 0 0 0 0 0 0 0 0 0 0 0 0 0 0 0 0 0 0 25 0 39 0 0 0 38 0 0 0 0 0 0 0 0 0 0 0 0 0 0 0 0 0 0 0 0 0 0 0 0 0 
		43 0 0 0 0 0 0 0 25 0 0 0 31 0 21 0 0 0 0 0 24 0 0 32 0 0 34 0 0 21 0 0 0 0 0 40 0 0 0 0 0 0 0 0 0 0 25 0 0 0 0 0 0 0 0 0 0 0 0 0 22 0 0 0 0 0 0 0 0 0 0 0 0 0 0 0 0 0 0 
		44 31 30 0 27 0 0 0 0 0 0 0 0 0 0 0 0 0 0 0 0 0 0 0 0 0 29 0 0 0 0 0 0 0 0 0 0 0 0 34 0 0 0 0 0 0 0 0 0 0 23 0 0 0 0 0 0 0 0 0 0 0 0 0 0 0 28 0 0 0 0 0 0 0 0 0 0 0 0 
		45 0 0 0 36 0 0 0 0 39 0 28 0 0 0 0 0 36 0 33 0 0 0 33 29 0 40 32 0 0 0 0 0 0 0 0 0 0 0 0 0 0 0 0 25 0 0 0 0 0 0 0 0 0 0 0 0 0 38 0 0 0 0 0 0 0 0 0 0 0 0 0 0 0 39 0 0 0 0 
		46 29 0 0 0 0 29 0 0 0 0 0 0 0 0 0 0 0 0 0 0 0 0 0 0 0 0 0 0 0 0 0 0 0 0 0 0 0 0 0 0 0 35 25 0 0 0 0 0 0 0 0 0 0 0 0 0 0 0 20 0 0 0 33 0 0 0 0 0 27 0 0 0 0 20 0 0 33 0 
		47 0 0 0 0 0 0 0 0 0 38 0 0 0 0 0 0 0 0 0 0 0 21 0 0 0 0 0 0 0 0 0 0 0 0 0 0 0 0 0 25 0 0 0 0 0 0 0 0 0 0 0 0 0 23 0 0 0 0 0 0 0 0 34 28 0 0 0 0 0 0 0 0 0 0 0 0 0 0 
		48 0 0 0 0 0 0 0 0 0 36 0 0 0 0 0 0 0 0 0 0 0 0 0 0 0 0 0 0 0 0 0 0 0 0 0 0 0 0 24 0 0 22 39 0 0 0 0 0 0 0 35 0 39 40 0 0 36 0 0 32 0 0 0 0 0 0 30 0 0 0 0 0 39 0 0 0 0 0 
		49 0 0 0 0 0 0 0 35 0 0 0 0 0 0 0 0 0 0 0 0 0 0 0 0 0 0 0 0 0 0 0 0 0 0 0 0 0 36 0 0 0 0 0 0 23 0 0 0 0 0 0 0 0 0 0 0 0 0 0 21 0 0 0 0 0 0 0 0 0 0 0 0 0 21 0 0 0 0 
		50 0 0 0 36 0 0 33 0 33 0 0 0 0 0 0 0 0 0 22 0 0 0 0 0 0 0 0 0 0 0 0 0 0 0 0 0 28 0 0 0 0 26 0 0 0 0 0 0 35 0 0 0 0 0 0 0 0 0 0 0 0 0 0 0 0 0 0 0 0 0 0 0 0 0 0 33 0 0 
		51 0 0 0 0 0 0 0 0 0 0 0 0 0 0 0 0 0 0 0 0 0 0 0 0 0 0 0 0 0 0 0 0 0 0 0 0 0 0 0 0 0 31 0 0 0 0 0 0 0 0 0 0 0 0 0 0 0 0 0 0 0 0 0 38 40 0 0 0 0 0 0 0 0 0 0 23 30 0 
		52 0 0 0 0 0 0 0 24 0 0 0 0 0 0 0 0 0 0 0 0 0 0 0 0 28 0 0 0 0 0 0 0 0 0 0 0 0 0 0 0 0 0 38 0 0 0 0 0 39 0 0 0 0 0 0 0 0 0 0 0 0 0 0 0 0 34 0 0 0 0 0 0 0 0 25 0 0 0 
		53 0 0 0 38 0 0 0 0 0 0 27 23 0 0 0 24 0 0 0 0 0 0 0 0 0 0 0 24 0 0 0 0 0 0 0 0 0 22 0 0 0 0 0 0 0 0 0 23 40 0 0 0 0 0 0 0 0 0 0 0 0 0 0 0 0 0 0 0 0 0 0 0 0 0 0 0 0 0 
		54 0 0 0 0 0 0 0 0 0 0 0 0 40 0 29 0 0 0 0 0 0 0 0 0 0 0 0 0 0 0 0 0 0 0 0 0 0 0 0 0 0 27 0 0 0 0 0 0 0 0 0 0 0 0 0 0 35 0 0 0 0 0 0 0 0 0 0 0 0 0 0 0 0 0 0 32 0 32 
		55 0 0 0 0 0 0 0 0 0 26 0 0 38 0 0 0 0 0 0 0 0 0 0 0 0 0 0 0 22 36 0 0 0 0 0 37 0 0 0 0 0 0 0 0 0 0 0 0 0 0 0 0 0 0 0 0 0 0 0 0 0 0 34 30 0 0 0 0 0 0 0 0 0 0 0 0 0 0 
		56 0 38 0 0 0 0 0 0 0 0 0 0 0 0 0 0 0 0 0 0 0 0 0 0 33 0 0 0 0 0 0 35 0 0 0 0 0 0 0 0 0 0 0 0 0 0 0 0 36 0 0 0 0 0 35 0 0 0 0 0 0 0 0 0 0 0 0 0 0 0 0 0 0 0 0 0 0 0 
		57 36 0 0 0 0 0 0 0 0 0 0 0 0 35 40 0 0 0 0 20 0 0 0 0 0 0 0 0 0 0 0 0 0 0 0 0 0 0 0 0 0 0 0 0 0 38 0 0 0 0 0 0 0 0 0 0 0 0 0 0 0 0 0 0 0 0 0 0 0 0 0 0 0 0 0 0 0 0 
		58 0 0 0 0 0 33 0 0 0 0 0 0 0 0 0 36 0 0 0 0 40 0 0 0 0 0 0 34 0 0 0 0 0 0 24 0 0 0 0 0 0 25 0 0 0 0 20 0 0 0 0 0 0 0 0 0 0 0 0 0 29 0 0 0 0 0 0 0 38 0 0 0 0 0 0 26 0 0 
		59 0 0 0 0 24 0 0 23 0 0 0 0 0 0 0 0 0 0 0 0 0 0 0 0 0 0 0 0 0 0 0 0 28 0 23 0 0 0 0 0 0 0 0 22 0 0 0 0 32 21 0 0 0 0 0 0 0 0 0 0 0 0 0 0 0 0 0 0 0 40 0 0 0 0 0 35 0 0 
		60 0 0 0 0 0 0 0 0 0 0 0 0 0 0 0 0 0 0 0 0 22 0 0 0 0 0 0 0 0 0 0 23 0 0 0 0 0 20 0 39 0 23 0 0 0 0 0 0 0 0 0 0 0 0 0 0 0 0 29 0 0 0 0 0 0 0 0 0 0 0 32 0 0 0 0 0 20 34 
		61 0 0 0 0 0 0 0 32 0 0 0 0 0 40 0 0 30 0 39 0 39 0 0 0 0 0 0 0 0 0 0 0 35 0 22 0 0 0 0 0 0 0 0 0 0 0 0 0 0 0 0 0 0 0 0 0 0 0 0 0 0 0 0 0 0 0 0 0 0 0 22 0 0 0 0 0 0 0 
		62 0 0 0 0 0 26 0 0 0 0 34 0 0 0 0 0 0 0 0 32 0 31 0 0 0 0 0 0 0 0 0 0 0 0 0 0 0 0 0 0 0 0 0 0 0 0 33 34 0 0 0 0 0 0 0 34 0 0 0 0 0 0 0 26 0 20 0 0 0 0 0 0 0 0 0 0 0 0 
		63 0 0 0 0 0 36 38 0 0 28 0 0 0 0 0 0 0 0 0 0 0 36 0 0 0 0 20 0 0 36 0 0 0 0 0 0 0 0 25 0 0 30 0 0 0 0 0 28 0 0 0 38 0 0 0 30 0 0 0 0 0 0 26 0 0 0 0 0 30 0 0 0 0 0 0 0 0 32 
		64 0 0 0 0 0 0 0 0 0 0 0 0 0 0 0 39 0 0 0 0 0 0 0 0 0 35 0 0 0 0 0 0 0 0 0 0 0 0 31 0 0 30 0 0 0 0 0 0 0 0 0 40 0 0 0 0 0 0 0 0 0 0 0 0 0 0 24 0 0 0 0 0 0 32 0 0 0 0 
		65 0 33 0 0 0 0 0 0 32 0 0 0 0 0 0 0 24 0 0 20 0 0 31 0 0 0 0 0 0 0 0 0 0 0 0 0 0 0 0 0 0 0 0 0 28 0 0 0 0 0 0 0 34 0 0 0 0 0 0 0 0 0 20 0 0 0 0 0 0 0 0 0 0 0 0 0 30 0 
		66 0 0 0 0 0 0 0 0 0 0 0 0 0 0 0 0 0 0 0 0 0 0 0 0 21 0 0 0 0 0 0 0 0 27 0 0 38 0 0 0 0 26 0 0 0 0 0 0 30 0 0 0 0 0 0 0 0 0 0 0 0 0 0 0 24 0 0 0 0 0 0 0 0 0 0 31 20 0 
		67 32 0 0 0 0 0 0 0 0 0 0 0 0 31 0 0 0 0 0 0 0 0 0 0 0 0 0 0 0 0 0 0 0 0 31 31 0 0 0 0 38 0 0 0 0 0 0 0 0 0 0 0 0 0 0 0 0 0 0 0 0 0 0 0 0 0 0 0 0 0 0 0 0 0 0 0 0 0 
		68 0 0 0 39 0 0 0 0 0 0 0 0 23 0 25 33 0 31 30 0 0 0 0 0 0 0 0 0 0 0 0 0 0 0 0 0 0 0 32 0 0 33 0 0 0 0 27 0 0 0 0 0 0 0 0 0 0 0 38 0 0 0 0 30 0 0 0 0 0 0 0 0 0 0 0 0 0 0 
		69 0 20 0 30 0 0 0 0 33 0 0 0 0 0 0 0 0 0 0 26 0 0 0 0 0 39 27 0 0 0 0 0 0 28 36 40 36 0 0 0 0 0 0 0 0 0 0 0 0 0 0 0 0 0 0 0 0 0 0 40 0 0 0 0 0 0 0 0 0 0 37 0 0 26 0 0 40 34 
		70 0 0 0 38 0 0 0 0 0 0 0 0 0 0 0 0 0 0 0 0 0 0 0 0 0 0 0 0 33 0 0 0 0 0 0 0 0 0 0 0 26 0 0 0 0 0 0 0 0 0 0 0 0 0 0 0 0 0 0 0 32 22 0 0 0 0 0 0 0 37 0 0 0 26 0 0 23 0 
		71 0 0 0 0 28 0 0 0 0 0 37 0 0 0 0 0 0 0 0 0 0 0 0 0 0 0 0 0 0 0 0 0 0 0 0 0 0 0 0 31 0 0 0 0 0 0 0 0 0 0 0 0 0 0 0 0 0 0 0 0 0 0 0 0 0 0 0 0 0 0 0 0 21 0 0 0 0 0 
		72 32 0 0 0 0 0 36 0 25 0 0 0 0 35 0 0 0 0 0 0 0 0 37 0 0 0 0 0 0 0 0 0 0 0 30 0 0 0 0 0 0 0 0 0 0 0 0 0 39 0 0 0 0 0 0 0 0 0 0 0 0 0 0 0 0 0 0 0 0 0 0 21 0 0 0 0 0 0 
		73 0 0 0 0 0 0 0 0 0 0 0 0 0 0 0 39 0 0 32 0 0 0 0 0 0 0 27 0 0 0 0 23 40 0 26 0 0 38 0 31 0 21 0 0 0 39 20 0 0 21 0 0 0 0 0 0 0 0 0 0 0 0 0 0 32 0 0 0 0 26 26 0 0 0 0 0 0 0 
		74 0 36 31 20 0 0 36 0 0 0 0 0 0 0 0 0 0 22 0 0 0 0 36 20 0 0 40 0 0 0 0 0 0 0 0 26 0 0 0 0 0 0 0 0 0 0 0 0 0 0 0 0 25 0 0 0 0 0 0 0 0 0 0 0 0 0 0 0 0 0 0 0 0 0 0 0 0 0 
		75 0 0 0 0 0 0 0 0 0 0 0 0 0 0 0 0 0 0 0 0 0 0 0 0 0 0 0 31 0 0 0 0 0 25 0 0 34 0 0 0 0 0 0 0 0 0 0 0 0 0 33 23 0 0 32 0 0 0 26 35 0 0 0 0 0 0 31 0 0 0 0 0 0 0 0 0 0 39 
		76 0 0 0 0 0 0 0 0 25 0 0 0 0 0 32 35 30 27 0 0 0 0 0 0 0 0 0 0 0 0 0 0 0 0 0 0 0 0 32 0 0 0 0 0 0 0 33 0 0 0 0 30 0 0 0 0 0 0 0 0 20 0 0 0 0 30 20 0 0 40 23 0 0 0 0 0 0 0 
		77 0 0 22 0 0 0 0 26 0 0 0 0 40 0 0 0 0 0 0 0 39 0 0 30 0 0 0 0 0 0 0 37 0 0 0 0 0 0 0 0 0 0 0 0 0 0 0 0 0 0 0 0 0 0 32 0 0 0 0 0 34 0 0 32 0 0 0 0 0 34 0 0 0 0 0 39 0 0 
;
